proyfinal/src/viki/013/andrea/andrea-localstore/experimentInOfficeAgust.take6/worker_3/463d4966-7e0c-4079-82b2-490c998ccb31.als.cnf.out
Reading from standard input... Use '--help' for help.
============================[ Problem Statistics ]=============================
|                                                                             |
|  Number of variables:         87638                                         |
|  Number of clauses:          161767                                         |
|  Parse time:                   0.04 s                                       |
|                                                                             |
============================[ Search Statistics ]==============================
| Conflicts |          ORIGINAL         |          LEARNT          | Progress |
|           |    Vars  Clauses Literals |    Limit  Clauses Lit/Cl |          |
===============================================================================
|       100 |   62891   107256   267391 |    39327      100      9 | 28.238 % |
|       250 |   62801   106896   266539 |    43259      244     23 | 28.340 % |
|       475 |   62710   106896   266539 |    47585      467     24 | 28.444 % |
|       812 |   62710   106492   265597 |    52344      797     63 | 28.444 % |
|      1318 |   62710   106492   265597 |    57578     1303     69 | 28.444 % |
|      2077 |   62668   106400   265386 |    63336     2060     70 | 28.492 % |
|      3216 |   62619   106120   264733 |    69670     3150     80 | 28.548 % |
|      4924 |   62601   106046   264562 |    76637     4857     89 | 28.569 % |
|      7486 |   56434    87184   218198 |    84301     7388     86 | 35.606 % |
|     11330 |   56050    85048   213149 |    92731    10516     76 | 36.044 % |
|     17096 |   55866    84396   211629 |   102004    15929     76 | 36.254 % |
===============================================================================
restarts              : 77
conflicts             : 21346          (8306 /sec)
decisions             : 70615          (0.00 % random) (27477 /sec)
propagations          : 24485828       (9527689 /sec)
conflict literals     : 1568960        (46.63 % deleted)
Memory used           : 44.91 MB
CPU time              : 2.56996 s

UNSATISFIABLE
